\ENCODING=ISO-8859-1
\Problem name: Generalized Multiple Knapsack Problem

Maximize
 obj: 97 x_1_3 + 49 x_1_7 + 94 x_1_9 + 17 x_1_10 + 88 x_1_17 + 11 x_1_18
      + 46 x_1_20 + 96 x_1_23 + 70 x_1_28 + 60 x_1_30 + 97 x_2_3 + 49 x_2_7
      + 94 x_2_9 + 17 x_2_10 + 88 x_2_17 + 11 x_2_18 + 46 x_2_20 + 96 x_2_23
      + 70 x_2_28 + 60 x_2_30 + 97 x_3_3 + 49 x_3_7 + 94 x_3_9 + 17 x_3_10
      + 88 x_3_17 + 11 x_3_18 + 46 x_3_20 + 96 x_3_23 + 70 x_3_28 + 60 x_3_30
Subject To
 capacity_1:           9 x_1_3 + 4 x_1_7 + 9 x_1_9 + x_1_10 + 8 x_1_17 + x_1_18
                       + 4 x_1_20 + 9 x_1_23 + 7 x_1_28 + 6 x_1_30 + 3 x_1_1
                       + 9 x_1_2 + 9 x_1_4 + x_1_5 + 10 x_1_6 + 2 x_1_8
                       + 8 x_1_11 + 9 x_1_12 + 8 x_1_13 + 6 x_1_14 + 6 x_1_15
                       + 3 x_1_16 + 5 x_1_19 + 7 x_1_21 + 10 x_1_22 + 10 x_1_24
                       + 8 x_1_25 + 4 x_1_26 + 8 x_1_27 + 6 x_1_29 + y_1_1
                       + y_1_2 + y_1_3 <= 50
 capacity_2:           9 x_2_3 + 4 x_2_7 + 9 x_2_9 + x_2_10 + 8 x_2_17 + x_2_18
                       + 4 x_2_20 + 9 x_2_23 + 7 x_2_28 + 6 x_2_30 + 3 x_2_1
                       + 9 x_2_2 + 9 x_2_4 + x_2_5 + 10 x_2_6 + 2 x_2_8
                       + 8 x_2_11 + 9 x_2_12 + 8 x_2_13 + 6 x_2_14 + 6 x_2_15
                       + 3 x_2_16 + 5 x_2_19 + 7 x_2_21 + 10 x_2_22 + 10 x_2_24
                       + 8 x_2_25 + 4 x_2_26 + 8 x_2_27 + 6 x_2_29 + y_2_1
                       + y_2_2 + y_2_3 <= 50
 capacity_3:           9 x_3_3 + 4 x_3_7 + 9 x_3_9 + x_3_10 + 8 x_3_17 + x_3_18
                       + 4 x_3_20 + 9 x_3_23 + 7 x_3_28 + 6 x_3_30 + 3 x_3_1
                       + 9 x_3_2 + 9 x_3_4 + x_3_5 + 10 x_3_6 + 2 x_3_8
                       + 8 x_3_11 + 9 x_3_12 + 8 x_3_13 + 6 x_3_14 + 6 x_3_15
                       + 3 x_3_16 + 5 x_3_19 + 7 x_3_21 + 10 x_3_22 + 10 x_3_24
                       + 8 x_3_25 + 4 x_3_26 + 8 x_3_27 + 6 x_3_29 + y_3_1
                       + y_3_2 + y_3_3 <= 50
 max_one_bin_1:        y_1_1 + y_2_1 + y_3_1 <= 1
 max_one_bin_2:        y_1_2 + y_2_2 + y_3_2 <= 1
 max_one_bin_3:        y_1_3 + y_2_3 + y_3_3 <= 1
 dependent_decision_1: x_1_7 + x_1_10 + x_1_17 + x_1_28 + x_1_1 + x_1_6
                       + x_1_12 + x_1_16 + x_1_21 + x_1_24 + x_1_26 + x_1_27
                       - 30 y_1_1 <= 0
 dependent_decision_2: x_1_9 + x_1_20 + x_1_23 + x_1_30 + x_1_2 + x_1_5 + x_1_8
                       + x_1_11 + x_1_15 - 30 y_1_2 <= 0
 dependent_decision_3: x_1_3 + x_1_18 + x_1_4 + x_1_13 + x_1_14 + x_1_19
                       + x_1_22 + x_1_25 + x_1_29 - 30 y_1_3 <= 0
 dependent_decision_4: x_2_7 + x_2_10 + x_2_17 + x_2_28 + x_2_1 + x_2_6
                       + x_2_12 + x_2_16 + x_2_21 + x_2_24 + x_2_26 + x_2_27
                       - 30 y_2_1 <= 0
 dependent_decision_5: x_2_9 + x_2_20 + x_2_23 + x_2_30 + x_2_2 + x_2_5 + x_2_8
                       + x_2_11 + x_2_15 - 30 y_2_2 <= 0
 dependent_decision_6: x_2_3 + x_2_18 + x_2_4 + x_2_13 + x_2_14 + x_2_19
                       + x_2_22 + x_2_25 + x_2_29 - 30 y_2_3 <= 0
 dependent_decision_7: x_3_7 + x_3_10 + x_3_17 + x_3_28 + x_3_1 + x_3_6
                       + x_3_12 + x_3_16 + x_3_21 + x_3_24 + x_3_26 + x_3_27
                       - 30 y_3_1 <= 0
 dependent_decision_8: x_3_9 + x_3_20 + x_3_23 + x_3_30 + x_3_2 + x_3_5 + x_3_8
                       + x_3_11 + x_3_15 - 30 y_3_2 <= 0
 dependent_decision_9: x_3_3 + x_3_18 + x_3_4 + x_3_13 + x_3_14 + x_3_19
                       + x_3_22 + x_3_25 + x_3_29 - 30 y_3_3 <= 0
Bounds
 0 <= x_1_3 <= 1
 0 <= x_1_7 <= 1
 0 <= x_1_9 <= 1
 0 <= x_1_10 <= 1
 0 <= x_1_17 <= 1
 0 <= x_1_18 <= 1
 0 <= x_1_20 <= 1
 0 <= x_1_23 <= 1
 0 <= x_1_28 <= 1
 0 <= x_1_30 <= 1
 0 <= x_2_3 <= 1
 0 <= x_2_7 <= 1
 0 <= x_2_9 <= 1
 0 <= x_2_10 <= 1
 0 <= x_2_17 <= 1
 0 <= x_2_18 <= 1
 0 <= x_2_20 <= 1
 0 <= x_2_23 <= 1
 0 <= x_2_28 <= 1
 0 <= x_2_30 <= 1
 0 <= x_3_3 <= 1
 0 <= x_3_7 <= 1
 0 <= x_3_9 <= 1
 0 <= x_3_10 <= 1
 0 <= x_3_17 <= 1
 0 <= x_3_18 <= 1
 0 <= x_3_20 <= 1
 0 <= x_3_23 <= 1
 0 <= x_3_28 <= 1
 0 <= x_3_30 <= 1
 0 <= x_1_1 <= 1
 0 <= x_1_2 <= 1
 0 <= x_1_4 <= 1
 0 <= x_1_5 <= 1
 0 <= x_1_6 <= 1
 0 <= x_1_8 <= 1
 0 <= x_1_11 <= 1
 0 <= x_1_12 <= 1
 0 <= x_1_13 <= 1
 0 <= x_1_14 <= 1
 0 <= x_1_15 <= 1
 0 <= x_1_16 <= 1
 0 <= x_1_19 <= 1
 0 <= x_1_21 <= 1
 0 <= x_1_22 <= 1
 0 <= x_1_24 <= 1
 0 <= x_1_25 <= 1
 0 <= x_1_26 <= 1
 0 <= x_1_27 <= 1
 0 <= x_1_29 <= 1
 0 <= y_1_1 <= 1
 0 <= y_1_2 <= 1
 0 <= y_1_3 <= 1
 0 <= x_2_1 <= 1
 0 <= x_2_2 <= 1
 0 <= x_2_4 <= 1
 0 <= x_2_5 <= 1
 0 <= x_2_6 <= 1
 0 <= x_2_8 <= 1
 0 <= x_2_11 <= 1
 0 <= x_2_12 <= 1
 0 <= x_2_13 <= 1
 0 <= x_2_14 <= 1
 0 <= x_2_15 <= 1
 0 <= x_2_16 <= 1
 0 <= x_2_19 <= 1
 0 <= x_2_21 <= 1
 0 <= x_2_22 <= 1
 0 <= x_2_24 <= 1
 0 <= x_2_25 <= 1
 0 <= x_2_26 <= 1
 0 <= x_2_27 <= 1
 0 <= x_2_29 <= 1
 0 <= y_2_1 <= 1
 0 <= y_2_2 <= 1
 0 <= y_2_3 <= 1
 0 <= x_3_1 <= 1
 0 <= x_3_2 <= 1
 0 <= x_3_4 <= 1
 0 <= x_3_5 <= 1
 0 <= x_3_6 <= 1
 0 <= x_3_8 <= 1
 0 <= x_3_11 <= 1
 0 <= x_3_12 <= 1
 0 <= x_3_13 <= 1
 0 <= x_3_14 <= 1
 0 <= x_3_15 <= 1
 0 <= x_3_16 <= 1
 0 <= x_3_19 <= 1
 0 <= x_3_21 <= 1
 0 <= x_3_22 <= 1
 0 <= x_3_24 <= 1
 0 <= x_3_25 <= 1
 0 <= x_3_26 <= 1
 0 <= x_3_27 <= 1
 0 <= x_3_29 <= 1
 0 <= y_3_1 <= 1
 0 <= y_3_2 <= 1
 0 <= y_3_3 <= 1
Binaries
 x_1_3  x_1_7  x_1_9  x_1_10  x_1_17  x_1_18  x_1_20  x_1_23  x_1_28  x_1_30 
 x_2_3  x_2_7  x_2_9  x_2_10  x_2_17  x_2_18  x_2_20  x_2_23  x_2_28  x_2_30 
 x_3_3  x_3_7  x_3_9  x_3_10  x_3_17  x_3_18  x_3_20  x_3_23  x_3_28  x_3_30 
 x_1_1  x_1_2  x_1_4  x_1_5  x_1_6  x_1_8  x_1_11  x_1_12  x_1_13  x_1_14 
 x_1_15  x_1_16  x_1_19  x_1_21  x_1_22  x_1_24  x_1_25  x_1_26  x_1_27 
 x_1_29  y_1_1  y_1_2  y_1_3  x_2_1  x_2_2  x_2_4  x_2_5  x_2_6  x_2_8  x_2_11 
 x_2_12  x_2_13  x_2_14  x_2_15  x_2_16  x_2_19  x_2_21  x_2_22  x_2_24 
 x_2_25  x_2_26  x_2_27  x_2_29  y_2_1  y_2_2  y_2_3  x_3_1  x_3_2  x_3_4 
 x_3_5  x_3_6  x_3_8  x_3_11  x_3_12  x_3_13  x_3_14  x_3_15  x_3_16  x_3_19 
 x_3_21  x_3_22  x_3_24  x_3_25  x_3_26  x_3_27  x_3_29  y_3_1  y_3_2  y_3_3 
End
